
Gurobi 6.5.2 (linux64) logging started Mon Dec 12 22:09:08 2016


Gurobi 6.5.2 (linux64) logging started Mon Dec 12 22:09:08 2016

Optimize a model with 41 rows, 77 columns and 155 nonzeros
Coefficient statistics:
  Matrix range    [1e+00, 2e+00]
  Objective range [1e+00, 1e+02]
  Bounds range    [1e+00, 1e+00]
  RHS range       [1e+00, 1e+00]
Found heuristic solution: objective 1194
Presolve removed 21 rows and 20 columns
Presolve time: 0.00s
Presolved: 20 rows, 57 columns, 114 nonzeros
Variable types: 0 continuous, 57 integer (57 binary)

Root relaxation: objective 9.120000e+02, 26 iterations, 0.00 seconds

    Nodes    |    Current Node    |     Objective Bounds      |     Work
 Expl Unexpl |  Obj  Depth IntInf | Incumbent    BestBd   Gap | It/Node Time

     0     0  912.50000    0    9 1194.00000  912.50000  23.6%     -    0s
H    0     0                    1048.0000000  912.50000  12.9%     -    0s
H    0     0                    1046.0000000  912.50000  12.8%     -    0s
     0     0  914.50000    0   14 1046.00000  914.50000  12.6%     -    0s
     0     2  914.50000    0   14 1046.00000  914.50000  12.6%     -    0s
*   25     0              19     964.0000000  923.00000  4.25%   1.8    0s
H   32     2                     942.0000000  924.00000  1.91%   2.1    0s
*   33     2               4     935.0000000  924.00000  1.18%   2.1    0s
*   60     0               4     931.0000000  924.00000  0.75%   2.1    0s

Cutting planes:
  Gomory: 1
  Zero half: 1
  Lazy constraints: 15

Explored 69 nodes (168 simplex iterations) in 0.01 seconds
Thread count was 8 (of 8 available processors)

Optimal solution found (tolerance 1.00e-04)
Best objective 9.310000000000e+02, best bound 9.310000000000e+02, gap 0.0%
